Bruniera/ragionamento automatico/progetto/benchmark/asp/mid11.lp
start(0).
limit(6).
n(14).
strada(0,5,19).
strada(0,8,19).
strada(0,9,15).
strada(0,10,16).
strada(0,12,14).
strada(1,3,11).
strada(1,4,10).
strada(1,6,7).
strada(1,9,18).
strada(1,10,19).
strada(1,13,12).
strada(2,0,20).
strada(2,4,17).
strada(2,9,15).
strada(2,10,4).
strada(2,11,11).
strada(2,13,17).
strada(3,0,11).
strada(3,1,8).
strada(3,6,8).
strada(3,7,2).
strada(3,11,11).
strada(4,0,17).
strada(4,1,0).
strada(4,2,5).
strada(4,3,0).
strada(4,5,18).
strada(4,8,16).
strada(4,9,10).
strada(4,13,6).
strada(5,3,3).
strada(5,4,20).
strada(5,6,4).
strada(5,8,9).
strada(5,9,11).
strada(5,12,7).
strada(6,2,20).
strada(6,8,7).
strada(6,9,20).
strada(6,10,20).
strada(7,0,7).
strada(7,4,2).
strada(7,5,5).
strada(7,6,18).
strada(7,11,2).
strada(7,12,8).
strada(8,9,15).
strada(8,10,1).
strada(9,4,0).
strada(9,12,12).
strada(9,13,15).
strada(10,0,9).
strada(10,3,3).
strada(10,6,5).
strada(10,9,13).
strada(10,13,11).
strada(11,0,2).
strada(11,1,20).
strada(11,2,2).
strada(11,4,2).
strada(11,5,6).
strada(11,6,1).
strada(11,8,1).
strada(11,10,3).
strada(11,13,17).
strada(12,6,15).
strada(12,7,8).
strada(12,8,0).
strada(13,0,5).
strada(13,3,7).
strada(13,12,3).
