Bruniera/ragionamento automatico/progetto/benchmark/minizinc/mid11.dzn
start = 1;
limit = 6;
n = 14;
m=[|-1,-1,-1,-1,-1,19,-1,-1,19,15,16,-1,14,-1,
|-1,-1,-1,11,10,-1,7,-1,-1,18,19,-1,-1,12,
|20,-1,-1,-1,17,-1,-1,-1,-1,15,4,11,-1,17,
|11,8,-1,-1,-1,-1,8,2,-1,-1,-1,11,-1,-1,
|17,0,5,0,-1,18,-1,-1,16,10,-1,-1,-1,6,
|-1,-1,-1,3,20,-1,4,-1,9,11,-1,-1,7,-1,
|-1,-1,20,-1,-1,-1,-1,-1,7,20,20,-1,-1,-1,
|7,-1,-1,-1,2,5,18,-1,-1,-1,-1,2,8,-1,
|-1,-1,-1,-1,-1,-1,-1,-1,-1,15,1,-1,-1,-1,
|-1,-1,-1,-1,0,-1,-1,-1,-1,-1,-1,-1,12,15,
|9,-1,-1,3,-1,-1,5,-1,-1,13,-1,-1,-1,11,
|2,20,2,-1,2,6,1,-1,1,-1,3,-1,-1,17,
|-1,-1,-1,-1,-1,-1,15,8,0,-1,-1,-1,-1,-1,
|5,-1,-1,7,-1,-1,-1,-1,-1,-1,-1,-1,3,-1,
|]
;